; 
(set-info :status unknown)
(declare-sort ElementSort 0)
 (declare-sort ArraySort 0)
 (declare-fun e3 () ElementSort)
(declare-fun rd (ArraySort Int) ElementSort)
(declare-fun i3 () Int)
(declare-fun a () ArraySort)
(declare-fun i1 () Int)
(declare-fun a1 () ArraySort)
(declare-fun e1 () ElementSort)
(declare-fun b () ArraySort)
(declare-fun c2 () ArraySort)
(declare-fun c1 () ArraySort)
(declare-fun fresh_index_0 () Int)
(declare-fun fresh_index_1 () Int)
(declare-fun i2 () Int)
(assert 
)
(check-sat)
